; DUP1 PUSH cw_1 SLOAD EQ ISZERO ISZERO => PUSH cw_1 SLOAD DUP2 EQ
(set-option :produce-proofs true)
; 
(set-info :status unknown)
(declare-fun storage_t ((_ BitVec 256) (_ BitVec 256) (_ BitVec 256) Int (_ BitVec 256)) (_ BitVec 256))
(declare-fun w_1 () (_ BitVec 256))
(declare-fun storage_s ((_ BitVec 256) (_ BitVec 256) (_ BitVec 256) Int (_ BitVec 256)) (_ BitVec 256))
(declare-fun exc_halt_t (Int) Bool)
(declare-fun exc_halt_s (Int) Bool)
(declare-fun sc_t (Int) (_ BitVec 6))
(declare-fun stack_t ((_ BitVec 256) (_ BitVec 256) (_ BitVec 256) Int (_ BitVec 6)) (_ BitVec 256))
(declare-fun stack_s ((_ BitVec 256) (_ BitVec 256) (_ BitVec 256) Int (_ BitVec 6)) (_ BitVec 256))
(declare-fun sc_s (Int) (_ BitVec 6))
(declare-fun used_gas_t ((_ BitVec 256) (_ BitVec 256) (_ BitVec 256) Int) Int)
(declare-fun used_gas_s ((_ BitVec 256) (_ BitVec 256) (_ BitVec 256) Int) Int)
(assert
 (exists ((x_0 (_ BitVec 256)) (x_SLOAD_0 (_ BitVec 256)) )(let (($x9208 (forall ((w (_ BitVec 256)) )(let ((?x11043 (storage_t x_0 x_SLOAD_0 w_1 4 w)))
 (let ((?x4819 (storage_s x_0 x_SLOAD_0 w_1 6 w)))
 (= ?x4819 ?x11043))))
 ))
 (let (($x7854 (exc_halt_t 4)))
 (let (($x772 (exc_halt_s 6)))
 (let (($x4404 (= $x772 $x7854)))
 (let (($x11002 (forall ((n (_ BitVec 6)) )(let ((?x7495 (sc_t 4)))
 (let (($x3848 (bvsle ?x7495 n)))
 (let ((?x3437 (stack_t x_0 x_SLOAD_0 w_1 4 n)))
 (let ((?x4353 (stack_s x_0 x_SLOAD_0 w_1 6 n)))
 (let (($x1655 (= ?x4353 ?x3437)))
 (or $x1655 $x3848)))))))
 ))
 (let ((?x7495 (sc_t 4)))
 (let ((?x926 (sc_s 6)))
 (let (($x7904 (= ?x926 ?x7495)))
 (let ((?x6814 (used_gas_t x_0 x_SLOAD_0 w_1 0)))
 (let ((?x5423 (used_gas_s x_0 x_SLOAD_0 w_1 0)))
 (let (($x552 (= ?x5423 ?x6814)))
 (let (($x6556 (forall ((w (_ BitVec 256)) )(let ((?x7766 (storage_t x_0 x_SLOAD_0 w_1 0 w)))
 (let ((?x3040 (storage_s x_0 x_SLOAD_0 w_1 0 w)))
 (= ?x3040 ?x7766))))
 ))
 (let (($x56 (exc_halt_t 0)))
 (let (($x57 (exc_halt_s 0)))
 (let (($x58 (= $x57 $x56)))
 (let (($x11816 (forall ((n (_ BitVec 6)) )(let ((?x2293 (stack_t x_0 x_SLOAD_0 w_1 0 n)))
 (let ((?x11624 (stack_s x_0 x_SLOAD_0 w_1 0 n)))
 (let (($x10952 (= ?x11624 ?x2293)))
 (let ((?x63 (sc_t 0)))
 (let (($x721 (bvsle ?x63 n)))
 (or $x721 $x10952)))))))
 ))
 (let ((?x63 (sc_t 0)))
 (let ((?x72 (sc_s 0)))
 (let (($x73 (= ?x72 ?x63)))
 (let (($x2185 (= $x7854 (or (exc_halt_t 3) (not (bvsle (_ bv0 6) (bvadd (_ bv62 6) (sc_t 3))))))))
 (let (($x4781 (forall ((w (_ BitVec 256)) )(let ((?x2003 (storage_t x_0 x_SLOAD_0 w_1 3 w)))
 (let ((?x11043 (storage_t x_0 x_SLOAD_0 w_1 4 w)))
 (= ?x11043 ?x2003))))
 ))
 (let (($x515 (forall ((n (_ BitVec 6)) )(let ((?x7210 (stack_t x_0 x_SLOAD_0 w_1 3 n)))
 (let ((?x3437 (stack_t x_0 x_SLOAD_0 w_1 4 n)))
 (or (= ?x3437 ?x7210) (bvsle (bvadd (_ bv62 6) (sc_t 3)) n)))))
 ))
 (let (($x11256 (= (used_gas_t x_0 x_SLOAD_0 w_1 4) (+ 3 (used_gas_t x_0 x_SLOAD_0 w_1 3)))))
 (let ((?x11964 (sc_t 3)))
 (let ((?x2643 (bvadd (_ bv63 6) ?x11964)))
 (let ((?x244 (stack_t x_0 x_SLOAD_0 w_1 3 ?x2643)))
 (let ((?x3575 (ite (= ?x244 (stack_t x_0 x_SLOAD_0 w_1 3 (bvadd (_ bv62 6) ?x11964))) (_ bv1 256) (_ bv0 256))))
 (let (($x8382 (not (= ((_ extract 6 6) (bvadd (_ bv1 7) (concat (_ bv0 1) (sc_t 2)))) (_ bv0 1)))))
 (let (($x3706 (exc_halt_t 2)))
 (let (($x3256 (not (bvsle (_ bv0 6) (bvadd (_ bv62 6) (sc_t 2))))))
 (let (($x4112 (exc_halt_t 3)))
 (let (($x2507 (forall ((w (_ BitVec 256)) )(let ((?x8638 (storage_t x_0 x_SLOAD_0 w_1 2 w)))
 (let ((?x2003 (storage_t x_0 x_SLOAD_0 w_1 3 w)))
 (= ?x2003 ?x8638))))
 ))
 (let (($x5527 (forall ((n (_ BitVec 6)) )(let ((?x4222 (stack_t x_0 x_SLOAD_0 w_1 2 n)))
 (let ((?x7210 (stack_t x_0 x_SLOAD_0 w_1 3 n)))
 (let ((?x11248 (sc_t 2)))
 (let ((?x1148 (bvadd (_ bv62 6) ?x11248)))
 (let (($x10384 (bvsle ?x1148 n)))
 (or $x10384 (= ?x7210 ?x4222))))))))
 ))
 (let (($x6697 (= ?x11964 (bvadd (_ bv1 6) (sc_t 2)))))
 (let ((?x7045 (used_gas_t x_0 x_SLOAD_0 w_1 3)))
 (let ((?x11248 (sc_t 2)))
 (let ((?x11484 (bvadd (_ bv63 6) ?x11248)))
 (let ((?x6252 (stack_t x_0 x_SLOAD_0 w_1 2 ?x11484)))
 (let ((?x1148 (bvadd (_ bv62 6) ?x11248)))
 (let ((?x10678 (stack_t x_0 x_SLOAD_0 w_1 2 ?x1148)))
 (let (($x7247 (= $x3706 (or (exc_halt_t 1) (not (bvsle (_ bv0 6) (bvadd (_ bv63 6) (sc_t 1))))))))
 (let (($x334 (forall ((w (_ BitVec 256)) )(let ((?x2630 (storage_t x_0 x_SLOAD_0 w_1 1 w)))
 (let ((?x8638 (storage_t x_0 x_SLOAD_0 w_1 2 w)))
 (= ?x8638 ?x2630))))
 ))
 (let (($x1299 (forall ((n (_ BitVec 6)) )(let ((?x2345 (stack_t x_0 x_SLOAD_0 w_1 1 n)))
 (let ((?x4222 (stack_t x_0 x_SLOAD_0 w_1 2 n)))
 (let ((?x9666 (sc_t 1)))
 (let ((?x10947 (bvadd (_ bv63 6) ?x9666)))
 (let (($x2892 (bvsle ?x10947 n)))
 (or $x2892 (= ?x4222 ?x2345))))))))
 ))
 (let ((?x9666 (sc_t 1)))
 (let (($x2028 (= ?x11248 ?x9666)))
 (let ((?x9630 (used_gas_t x_0 x_SLOAD_0 w_1 2)))
 (let ((?x1503 (storage_t x_0 x_SLOAD_0 w_1 1 (stack_t x_0 x_SLOAD_0 w_1 1 (bvadd (_ bv63 6) ?x9666)))))
 (let (($x4852 (exc_halt_t 1)))
 (let (($x2020 (= $x4852 (or $x56 (not (= ((_ extract 6 6) (bvadd (_ bv1 7) (concat (_ bv0 1) ?x63))) (_ bv0 1)))))))
 (let (($x5635 (forall ((w (_ BitVec 256)) )(let ((?x7766 (storage_t x_0 x_SLOAD_0 w_1 0 w)))
 (let ((?x2630 (storage_t x_0 x_SLOAD_0 w_1 1 w)))
 (= ?x2630 ?x7766))))
 ))
 (let (($x1703 (forall ((n (_ BitVec 6)) )(let ((?x2293 (stack_t x_0 x_SLOAD_0 w_1 0 n)))
 (let ((?x2345 (stack_t x_0 x_SLOAD_0 w_1 1 n)))
 (let ((?x63 (sc_t 0)))
 (let (($x721 (bvsle ?x63 n)))
 (or $x721 (= ?x2345 ?x2293)))))))
 ))
 (let (($x7504 (= ?x9666 (bvadd (_ bv1 6) ?x63))))
 (let (($x3651 (= $x772 (or (exc_halt_s 5) (not (bvsle (_ bv0 6) (bvadd (_ bv63 6) (sc_s 5))))))))
 (let (($x2754 (forall ((w (_ BitVec 256)) )(let ((?x9261 (storage_s x_0 x_SLOAD_0 w_1 5 w)))
 (let ((?x4819 (storage_s x_0 x_SLOAD_0 w_1 6 w)))
 (= ?x4819 ?x9261))))
 ))
 (let (($x7711 (forall ((n (_ BitVec 6)) )(let ((?x4319 (sc_s 5)))
 (let ((?x5308 (bvadd (_ bv63 6) ?x4319)))
 (let (($x11540 (bvsle ?x5308 n)))
 (let ((?x4825 (stack_s x_0 x_SLOAD_0 w_1 5 n)))
 (let ((?x4353 (stack_s x_0 x_SLOAD_0 w_1 6 n)))
 (or (= ?x4353 ?x4825) $x11540)))))))
 ))
 (let ((?x4319 (sc_s 5)))
 (let (($x11754 (= ?x926 ?x4319)))
 (let (($x5671 (= (used_gas_s x_0 x_SLOAD_0 w_1 6) (+ 3 (used_gas_s x_0 x_SLOAD_0 w_1 5)))))
 (let ((?x724 (ite (= (stack_s x_0 x_SLOAD_0 w_1 5 (bvadd (_ bv63 6) ?x4319)) (_ bv0 256)) (_ bv1 256) (_ bv0 256))))
 (let (($x1862 (exc_halt_s 5)))
 (let (($x9062 (= $x1862 (or (exc_halt_s 4) (not (bvsle (_ bv0 6) (bvadd (_ bv63 6) (sc_s 4))))))))
 (let (($x1355 (forall ((w (_ BitVec 256)) )(let ((?x3528 (storage_s x_0 x_SLOAD_0 w_1 4 w)))
 (let ((?x9261 (storage_s x_0 x_SLOAD_0 w_1 5 w)))
 (= ?x9261 ?x3528))))
 ))
 (let (($x11526 (forall ((n (_ BitVec 6)) )(let ((?x9433 (sc_s 4)))
 (let ((?x5670 (bvadd (_ bv63 6) ?x9433)))
 (let (($x11419 (bvsle ?x5670 n)))
 (let ((?x9190 (stack_s x_0 x_SLOAD_0 w_1 4 n)))
 (let ((?x4825 (stack_s x_0 x_SLOAD_0 w_1 5 n)))
 (or (= ?x4825 ?x9190) $x11419)))))))
 ))
 (let ((?x9433 (sc_s 4)))
 (let (($x10436 (= ?x4319 ?x9433)))
 (let ((?x2962 (used_gas_s x_0 x_SLOAD_0 w_1 5)))
 (let ((?x7427 (ite (= (stack_s x_0 x_SLOAD_0 w_1 4 (bvadd (_ bv63 6) ?x9433)) (_ bv0 256)) (_ bv1 256) (_ bv0 256))))
 (let ((?x5308 (bvadd (_ bv63 6) ?x4319)))
 (let ((?x3026 (stack_s x_0 x_SLOAD_0 w_1 5 ?x5308)))
 (let (($x9175 (exc_halt_s 4)))
 (let (($x7542 (= $x9175 (or (exc_halt_s 3) (not (bvsle (_ bv0 6) (bvadd (_ bv62 6) (sc_s 3))))))))
 (let (($x1973 (forall ((w (_ BitVec 256)) )(let ((?x6342 (storage_s x_0 x_SLOAD_0 w_1 3 w)))
 (let ((?x3528 (storage_s x_0 x_SLOAD_0 w_1 4 w)))
 (= ?x3528 ?x6342))))
 ))
 (let (($x1983 (forall ((n (_ BitVec 6)) )(let ((?x11879 (stack_s x_0 x_SLOAD_0 w_1 3 n)))
 (let ((?x9190 (stack_s x_0 x_SLOAD_0 w_1 4 n)))
 (let ((?x3851 (sc_s 3)))
 (let ((?x6476 (bvadd (_ bv62 6) ?x3851)))
 (let (($x2289 (bvsle ?x6476 n)))
 (or $x2289 (= ?x9190 ?x11879))))))))
 ))
 (let ((?x1499 (used_gas_s x_0 x_SLOAD_0 w_1 4)))
 (let ((?x3851 (sc_s 3)))
 (let ((?x39 (bvadd (_ bv63 6) ?x3851)))
 (let ((?x3043 (stack_s x_0 x_SLOAD_0 w_1 3 ?x39)))
 (let ((?x4328 (ite (= ?x3043 (stack_s x_0 x_SLOAD_0 w_1 3 (bvadd (_ bv62 6) ?x3851))) (_ bv1 256) (_ bv0 256))))
 (let ((?x5670 (bvadd (_ bv63 6) ?x9433)))
 (let ((?x3897 (stack_s x_0 x_SLOAD_0 w_1 4 ?x5670)))
 (let (($x8103 (exc_halt_s 3)))
 (let (($x8941 (= $x8103 (or (exc_halt_s 2) (not (bvsle (_ bv0 6) (bvadd (_ bv63 6) (sc_s 2))))))))
 (let (($x1852 (forall ((w (_ BitVec 256)) )(let ((?x4173 (storage_s x_0 x_SLOAD_0 w_1 2 w)))
 (let ((?x6342 (storage_s x_0 x_SLOAD_0 w_1 3 w)))
 (= ?x6342 ?x4173))))
 ))
 (let (($x10837 (forall ((n (_ BitVec 6)) )(let ((?x8887 (stack_s x_0 x_SLOAD_0 w_1 2 n)))
 (let ((?x11879 (stack_s x_0 x_SLOAD_0 w_1 3 n)))
 (let ((?x2272 (sc_s 2)))
 (let ((?x7721 (bvadd (_ bv63 6) ?x2272)))
 (let (($x2092 (bvsle ?x7721 n)))
 (or $x2092 (= ?x11879 ?x8887))))))))
 ))
 (let ((?x2272 (sc_s 2)))
 (let (($x11383 (= ?x3851 ?x2272)))
 (let ((?x10470 (used_gas_s x_0 x_SLOAD_0 w_1 3)))
 (let ((?x8274 (storage_s x_0 x_SLOAD_0 w_1 2 (stack_s x_0 x_SLOAD_0 w_1 2 (bvadd (_ bv63 6) ?x2272)))))
 (let (($x10953 (not (= ((_ extract 6 6) (bvadd (_ bv1 7) (concat (_ bv0 1) (sc_s 1)))) (_ bv0 1)))))
 (let (($x8780 (exc_halt_s 1)))
 (let (($x10052 (exc_halt_s 2)))
 (let (($x7302 (= $x10052 (or $x8780 $x10953))))
 (let (($x9994 (forall ((w (_ BitVec 256)) )(let ((?x114 (storage_s x_0 x_SLOAD_0 w_1 1 w)))
 (let ((?x4173 (storage_s x_0 x_SLOAD_0 w_1 2 w)))
 (= ?x4173 ?x114))))
 ))
 (let (($x7129 (forall ((n (_ BitVec 6)) )(let ((?x2307 (stack_s x_0 x_SLOAD_0 w_1 1 n)))
 (let ((?x8887 (stack_s x_0 x_SLOAD_0 w_1 2 n)))
 (let ((?x154 (sc_s 1)))
 (let (($x10016 (bvsle ?x154 n)))
 (or $x10016 (= ?x8887 ?x2307)))))))
 ))
 (let (($x7440 (= ?x2272 (bvadd (_ bv1 6) (sc_s 1)))))
 (let ((?x1953 (used_gas_s x_0 x_SLOAD_0 w_1 2)))
 (let (($x6400 (not (= ((_ extract 6 6) (bvadd (_ bv1 7) (concat (_ bv0 1) ?x72))) (_ bv0 1)))))
 (let (($x5546 (not (bvsle (_ bv0 6) (bvadd (_ bv63 6) ?x72)))))
 (let (($x8571 (= $x8780 (or $x57 $x5546 $x6400))))
 (let (($x7328 (forall ((w (_ BitVec 256)) )(let ((?x3040 (storage_s x_0 x_SLOAD_0 w_1 0 w)))
 (let ((?x114 (storage_s x_0 x_SLOAD_0 w_1 1 w)))
 (= ?x114 ?x3040))))
 ))
 (let (($x2501 (forall ((n (_ BitVec 6)) )(let ((?x72 (sc_s 0)))
 (let ((?x2654 (bvadd (_ bv63 6) ?x72)))
 (let (($x7688 (bvsle ?x2654 n)))
 (let ((?x11624 (stack_s x_0 x_SLOAD_0 w_1 0 n)))
 (let ((?x2307 (stack_s x_0 x_SLOAD_0 w_1 1 n)))
 (or (= ?x2307 ?x11624) $x7688)))))))
 ))
 (let ((?x154 (sc_s 1)))
 (let (($x6284 (= ?x154 (bvadd (_ bv1 6) ?x72))))
 (let ((?x2654 (bvadd (_ bv63 6) ?x72)))
 (let ((?x7189 (stack_s x_0 x_SLOAD_0 w_1 0 ?x2654)))
 (let (($x2509 (forall ((w (_ BitVec 256)) )(let ((?x163 (ite (= w (stack_s x_0 x_SLOAD_0 w_1 2 (bvadd (_ bv63 6) (sc_s 2)))) x_SLOAD_0 (_ bv0 256))))
 (let ((?x3040 (storage_s x_0 x_SLOAD_0 w_1 0 w)))
 (= ?x3040 ?x163))))
 ))
 (let (($x7559 (= ?x5423 0)))
 (let (($x3720 (not $x57)))
 (let (($x1102 (= (stack_s x_0 x_SLOAD_0 w_1 0 (_ bv0 6)) x_0)))
 (let (($x4631 (= ?x72 (_ bv1 6))))
 (and $x4631 $x1102 $x3720 $x7559 $x2509 (= (stack_s x_0 x_SLOAD_0 w_1 1 (bvadd (_ bv63 6) ?x154)) ?x7189) (= (stack_s x_0 x_SLOAD_0 w_1 1 ?x2654) ?x7189) (= (used_gas_s x_0 x_SLOAD_0 w_1 1) (+ 3 ?x5423)) $x6284 $x2501 $x7328 $x8571 (= (stack_s x_0 x_SLOAD_0 w_1 2 ?x154) w_1) (= ?x1953 (+ 3 (used_gas_s x_0 x_SLOAD_0 w_1 1))) $x7440 $x7129 $x9994 $x7302 (= ?x3043 ?x8274) (= ?x10470 (+ 200 ?x1953)) $x11383 $x10837 $x1852 $x8941 (= ?x3897 ?x4328) (= ?x1499 (+ 3 ?x10470)) (= ?x9433 ?x39) $x1983 $x1973 $x7542 (= ?x3026 ?x7427) (= ?x2962 (+ 3 ?x1499)) $x10436 $x11526 $x1355 $x9062 (= (stack_s x_0 x_SLOAD_0 w_1 6 (bvadd (_ bv63 6) ?x926)) ?x724) $x5671 $x11754 $x7711 $x2754 $x3651 (= (stack_t x_0 x_SLOAD_0 w_1 1 ?x63) w_1) (= (used_gas_t x_0 x_SLOAD_0 w_1 1) (+ 3 ?x6814)) $x7504 $x1703 $x5635 $x2020 (= ?x6252 ?x1503) (= ?x9630 (+ 200 (used_gas_t x_0 x_SLOAD_0 w_1 1))) $x2028 $x1299 $x334 $x7247 (= ?x244 ?x10678) (= (stack_t x_0 x_SLOAD_0 w_1 3 ?x1148) ?x10678) (= (stack_t x_0 x_SLOAD_0 w_1 3 ?x11484) ?x6252) (= ?x7045 (+ 3 ?x9630)) $x6697 $x5527 $x2507 (= $x4112 (or $x3256 $x3706 $x8382)) (= (stack_t x_0 x_SLOAD_0 w_1 4 (bvadd (_ bv63 6) ?x7495)) ?x3575) $x11256 (= ?x7495 ?x2643) $x515 $x4781 $x2185 $x73 $x11816 $x58 $x6556 $x552 (not (and $x7904 $x11002 $x4404 $x9208))))))))))))))))))))))))))))))))))))))))))))))))))))))))))))))))))))))))))))))))))))))))))))))))))))))))))))))))))
 )
(check-sat)
(get-proof)
